data/solutions/recovery/wellformed/moderate/flexible/wellformed_moderate_instance89/30.sol
Elapsed time: 18.97
Upper bound: 7253.0
Planning weighted value: 459033.0
C[0]=7253.0
C[1]=7252.0
C[2]=7242.0
C[3]=7237.0
C[4]=7231.0
C[5]=7148.0
y[0]=5
y[1]=3
y[2]=0
y[3]=5
y[4]=2
y[5]=4
y[6]=0
y[7]=5
y[8]=1
y[9]=2
y[10]=4
y[11]=0
y[12]=3
y[13]=3
y[14]=2
y[15]=1
y[16]=2
y[17]=1
y[18]=5
y[19]=2
y[20]=0
y[21]=4
y[22]=3
y[23]=5
y[24]=0
y[25]=4
y[26]=3
y[27]=1
y[28]=1
y[29]=3
y[30]=1
y[31]=2
y[32]=3
y[33]=2
y[34]=1
y[35]=0
y[36]=4
y[37]=3
y[38]=4
y[39]=1
y[40]=0
y[41]=5
