data/solutions/recovery/wellformed/moderate/flexible/wellformed_moderate_instance89/30.log

Log started (V12.6.3.0) Fri Apr 20 19:30:01 2018

New value for default parallel thread count: 1

Problem '/tmp/tmpRBH_17.pyomo.lp' read.
Read time = 0.00 sec. (0.13 ticks)

Problem name         : /tmp/tmpRBH_17.pyomo.lp
Objective sense      : Minimize
Variables            :     260  [Nneg: 1,  Binary: 252,  General Integer: 7]
Objective nonzeros   :       1
Linear constraints   :      97  [Less: 48,  Equal: 49]
  Nonzeros           :    8917
  RHS nonzeros       :      85

Variables            : Min LB: 0.000000         Max UB: 1.000000       
Objective nonzeros   : Min   : 1.000000         Max   : 1.000000       
Linear constraints   :
  Nonzeros           : Min   : 1.000000         Max   : 1980.000       
  RHS nonzeros       : Min   : 1.000000         Max   : 5.000000       
Tried aggregator 2 times.
MIP Presolve eliminated 42 rows and 6 columns.
Aggregator did 7 substitutions.
Reduced MIP has 48 rows, 247 columns, and 693 nonzeros.
Reduced MIP has 246 binaries, 1 generals, 0 SOSs, and 0 indicators.
Presolve time = 0.00 sec. (2.20 ticks)
Found incumbent of value 43363.000000 after 0.00 sec. (2.69 ticks)
Probing time = 0.00 sec. (0.26 ticks)
Cover probing fixed 0 vars, tightened 4 bounds.
Tried aggregator 1 time.
Reduced MIP has 48 rows, 247 columns, and 693 nonzeros.
Reduced MIP has 246 binaries, 1 generals, 0 SOSs, and 0 indicators.
Presolve time = 0.00 sec. (0.41 ticks)
Probing time = 0.00 sec. (0.18 ticks)
Clique table members: 41.
MIP emphasis: balance optimality and feasibility.
MIP search method: dynamic search.
Parallel mode: none, using 1 thread.
Root relaxation solution time = 0.00 sec. (0.20 ticks)

        Nodes                                         Cuts/
   Node  Left     Objective  IInf  Best Integer    Best Bound    ItCnt     Gap

*     0+    0                        43363.0000     1980.0000            95.43%
      0     0     7227.1667     9    43363.0000     7227.1667       11   83.33%
*     0+    0                         8010.0000     7227.1667             9.77%
      0     0     7228.0000    12     8010.0000      Fract: 7       29    9.76%
*     0+    0                         7933.0000     7228.0000             8.89%
      0     0     7228.0000    20     7933.0000      Cuts: 12       57    8.89%
      0     0     7228.0000    18     7933.0000       Cuts: 8       74    8.89%
*     0+    0                         7555.0000     7228.0000             4.33%
*     0+    0                         7552.0000     7228.0000             4.29%
*     0+    0                         7517.0000     7228.0000             3.84%
      0     2     7228.0000    10     7517.0000     7228.0000       74    3.84%
Elapsed time = 0.02 sec. (15.97 ticks, tree = 0.01 MB, solutions = 6)
*   170+   99                         7445.0000     7228.0000             2.91%
*   174    96      integral     0     7391.0000     7228.0000      874    2.21%
*   484+  268                         7353.0000     7228.0000             1.70%
*   486+  180                         7344.0000     7228.0000             1.58%
*   486+  120                         7327.0000     7228.0000             1.35%
*   586+   99                         7324.0000     7228.0000             1.31%
*   586+   81                         7291.0000     7228.0000             0.86%
*   986+  230                         7278.0000     7228.0000             0.69%
   1071   288     7228.0000    13     7278.0000     7228.0000     5613    0.69%
   1072   289     7228.0000    14     7278.0000     7228.0000     5615    0.69%
   1073   290     7228.0000    14     7278.0000     7228.0000     5618    0.69%
   1074   291     7228.0000    14     7278.0000     7228.0000     5623    0.69%
   1075   292     7228.0000    14     7278.0000     7228.0000     5637    0.69%
   1076   293     7228.0000    13     7278.0000     7228.0000     5639    0.69%
   1077   294     7228.0000    12     7278.0000     7228.0000     5642    0.69%
   1078   295     7228.0000    11     7278.0000     7228.0000     5643    0.69%
   1079   295     7256.1936     7     7278.0000     7228.0000     5653    0.69%
*  1086+  294                         7273.0000     7228.0000             0.62%
   1799   586     7253.0000    16     7273.0000     7228.0000    16477    0.62%
Elapsed time = 0.89 sec. (969.67 ticks, tree = 0.18 MB, solutions = 15)
   3970  1863     7228.0000    36     7273.0000     7228.0000    54739    0.62%
   3971  1864     7228.0000    29     7273.0000     7228.0000    54781    0.62%
   3972  1865     7228.0000    37     7273.0000     7228.0000    54883    0.62%
   3973  1866     7228.0000    35     7273.0000     7228.0000    54884    0.62%
   3974  1867     7228.0000    34     7273.0000     7228.0000    54885    0.62%
   3975  1868     7228.0690    36     7273.0000     7228.0000    55136    0.62%
   3976  1869     7228.1125    36     7273.0000     7228.0000    55140    0.62%
   3977  1870     7228.1693    36     7273.0000     7228.0000    55144    0.62%
   3978  1871     7228.1787    36     7273.0000     7228.0000    55145    0.62%
   3979  1872     7228.1792    34     7273.0000     7228.0000    55146    0.62%
Elapsed time = 1.62 sec. (1934.10 ticks, tree = 0.56 MB, solutions = 15)
   5252  2686        cutoff           7273.0000     7228.0000    89368    0.62%
   5253  2687     7230.1153    37     7273.0000     7228.0000    89603    0.62%
   5254  2688     7230.1564    38     7273.0000     7228.0000    89607    0.62%
   5255  2689     7230.4844    34     7273.0000     7228.0000    89630    0.62%
   5256  2690     7234.5835    24     7273.0000     7228.0000    89674    0.62%
   5257  2691     7234.5835    24     7273.0000     7228.0000    89675    0.62%
   5258  2692     7234.5835    24     7273.0000     7228.0000    89676    0.62%
   5259  2693     7234.8338    25     7273.0000     7228.0000    89701    0.62%
   5260  2694     7235.2401    26     7273.0000     7228.0000    89718    0.62%
   5261  2695     7235.2702    26     7273.0000     7228.0000    89722    0.62%
Elapsed time = 2.31 sec. (2900.92 ticks, tree = 0.85 MB, solutions = 15)
   6166  3132     7251.1666    39     7273.0000     7228.0000   121458    0.62%
   6167  3133     7265.4115    34     7273.0000     7228.0000   121487    0.62%
   6168  3132        cutoff           7273.0000     7228.0000   121513    0.62%
   6169  3131        cutoff           7273.0000     7228.0000   121520    0.62%
   6170  3130        cutoff           7273.0000     7228.0000   121678    0.62%
   6171  3129        cutoff           7273.0000     7228.0000   121963    0.62%
   6172  3129     7243.8289    42     7273.0000     7228.0000   122107    0.62%
   6173  3129     7243.8294    43     7273.0000     7228.0000   122113    0.62%
   6174  3130     7243.8294    43     7273.0000     7228.0000   122115    0.62%
   6175  3129        cutoff           7273.0000     7228.0000   122145    0.62%
Elapsed time = 2.95 sec. (3876.96 ticks, tree = 1.13 MB, solutions = 15)
   6866  3391        cutoff           7273.0000     7228.0000   153616    0.62%
   6867  3390        cutoff           7273.0000     7228.0000   153721    0.62%
   6868  3389        cutoff           7273.0000     7228.0000   153910    0.62%
   6869  3388        cutoff           7273.0000     7228.0000   153951    0.62%
   6870  3389     7236.2005    43     7273.0000     7228.0000   154130    0.62%
   6871  3390     7261.9619    39     7273.0000     7228.0000   154241    0.62%
   6872  3389        cutoff           7273.0000     7228.0000   154248    0.62%
   6873  3388        cutoff           7273.0000     7228.0000   154250    0.62%
   6874  3387        cutoff           7273.0000     7228.0000   154372    0.62%
   6875  3388     7239.3859    39     7273.0000     7228.0000   154613    0.62%
Elapsed time = 3.62 sec. (4861.28 ticks, tree = 1.26 MB, solutions = 15)
   7718  3937     7264.4254    45     7273.0000     7228.0000   181976    0.62%
   7719  3938     7264.6076    45     7273.0000     7228.0000   181978    0.62%
   7720  3937        cutoff           7273.0000     7228.0000   182001    0.62%
   7721  3936        cutoff           7273.0000     7228.0000   182012    0.62%
   7722  3935        cutoff           7273.0000     7228.0000   182053    0.62%
   7723  3934        cutoff           7273.0000     7228.0000   182144    0.62%
   7724  3933        cutoff           7273.0000     7228.0000   182522    0.62%
   7725  3934     7241.4572    35     7273.0000     7228.0000   182878    0.62%
   7726  3935     7241.7782    31     7273.0000     7228.0000   182899    0.62%
   7727  3936     7242.6200    23     7273.0000     7228.0000   182921    0.62%
Elapsed time = 4.30 sec. (5848.28 ticks, tree = 1.49 MB, solutions = 15)
*  7976+ 3361                         7257.0000     7228.0000             0.40%
   8484  3694     7244.9967    47     7257.0000     7228.0000   210568    0.40%
   8485  3695     7244.9967    43     7257.0000     7228.0000   210571    0.40%
   8486  3696     7245.2206    44     7257.0000     7228.0000   210583    0.40%
   8487  3695        cutoff           7257.0000     7228.0000   210622    0.40%
   8488  3696     7255.5013    39     7257.0000     7228.0000   210665    0.40%
   8489  3695        cutoff           7257.0000     7228.0000   210671    0.40%
   8490  3694        cutoff           7257.0000     7228.0000   210673    0.40%
   8491  3693        cutoff           7257.0000     7228.0000   210813    0.40%
   8492  3693     7253.7836    36     7257.0000     7228.0000   211023    0.40%
   8493  3693     7253.8152    36     7257.0000     7228.0000   211025    0.40%
Elapsed time = 4.96 sec. (6824.96 ticks, tree = 1.60 MB, solutions = 16)
   9536  4397     7249.6491    35     7257.0000     7228.0000   239325    0.40%
   9537  4398     7249.7444    32     7257.0000     7228.0000   239329    0.40%
   9538  4399     7249.8273    29     7257.0000     7228.0000   239335    0.40%
   9539  4400     7249.9983    39     7257.0000     7228.0000   239349    0.40%
   9540  4401     7250.1072    33     7257.0000     7228.0000   239361    0.40%
   9541  4402     7250.1698    34     7257.0000     7228.0000   239368    0.40%
   9542  4403     7250.1741    33     7257.0000     7228.0000   239370    0.40%
   9543  4404     7250.2916    41     7257.0000     7228.0000   239380    0.40%
   9544  4405     7250.3109    40     7257.0000     7228.0000   239381    0.40%
   9545  4406     7250.3245    39     7257.0000     7228.0000   239383    0.40%
Elapsed time = 5.69 sec. (7780.29 ticks, tree = 2.27 MB, solutions = 16)
  10167  4899     7228.0000    47     7257.0000     7228.0000   254776    0.40%
  10168  4898    infeasible           7257.0000     7228.0000   255029    0.40%
  10169  4899     7228.1219    40     7257.0000     7228.0000   255112    0.40%
  10170  4900     7228.1590    36     7257.0000     7228.0000   255114    0.40%
  10171  4901     7228.1942    34     7257.0000     7228.0000   255118    0.40%
  10172  4902     7229.0717    36     7257.0000     7228.0000   255129    0.40%
  10173  4903     7229.4145    37     7257.0000     7228.0000   255132    0.40%
  10174  4904     7230.5804    33     7257.0000     7228.0000   255139    0.40%
  10175  4905     7230.6424    32     7257.0000     7228.0000   255144    0.40%
  10176  4906     7230.6893    32     7257.0000     7228.0000   255147    0.40%
Elapsed time = 6.78 sec. (8920.21 ticks, tree = 2.42 MB, solutions = 16)
  11096  5493        cutoff           7257.0000     7228.0000   284080    0.40%
  11097  5494     7229.2316    49     7257.0000     7228.0000   284267    0.40%
  11098  5495     7230.1182    45     7257.0000     7228.0000   284291    0.40%
  11099  5496     7230.1772    46     7257.0000     7228.0000   284301    0.40%
  11100  5497     7230.2993    46     7257.0000     7228.0000   284304    0.40%
  11101  5498     7235.1598    43     7257.0000     7228.0000   284381    0.40%
  11102  5499     7235.1753    38     7257.0000     7228.0000   284384    0.40%
  11103  5500     7235.2642    39     7257.0000     7228.0000   284386    0.40%
  11104  5501     7235.5970    37     7257.0000     7228.0000   284395    0.40%
  14738  8251     7240.1671    46     7257.0000     7228.3973   360451    0.39%
Elapsed time = 9.32 sec. (12736.97 ticks, tree = 5.94 MB, solutions = 16)
  20048  3665        cutoff           7257.0000     7230.7293   464826    0.36%
  20049  3590        cutoff           7257.0000     7230.7293   464851    0.36%
  20050  3515        cutoff           7257.0000     7230.7293   464878    0.36%
  20051  3440        cutoff           7257.0000     7230.7293   464891    0.36%
  20052  3440     7231.2100    35     7257.0000     7230.7293   465021    0.36%
  20053  3439     7231.2140    36     7257.0000     7230.7293   465042    0.36%
  20054  3440     7231.2140    35     7257.0000     7230.7293   465047    0.36%
  20055  3440     7231.8195    36     7257.0000     7230.7293   465057    0.36%
  20056  3440     7233.6392    33     7257.0000     7230.7293   465067    0.36%
  20057  3439     7233.6923    33     7257.0000     7230.7293   465078    0.36%
Elapsed time = 12.09 sec. (16570.40 ticks, tree = 2.02 MB, solutions = 16)
  24386  2536        cutoff           7257.0000     7231.0764   550323    0.36%
  24387  2537     7234.1991    52     7257.0000     7231.1153   550382    0.36%
  24388  2538     7234.3078    50     7257.0000     7231.1153   550390    0.36%
  24389  2539     7234.6508    51     7257.0000     7231.1153   550426    0.36%
  24390  2540     7234.6673    52     7257.0000     7231.1153   550434    0.36%
  24391  2541     7234.6700    51     7257.0000     7231.1153   550436    0.36%
  24392  2542     7234.6934    57     7257.0000     7231.1153   550442    0.36%
  24393  2543     7234.6934    50     7257.0000     7231.1153   550443    0.36%
  24394  2544     7234.8736    55     7257.0000     7231.1153   550459    0.36%
  24395  2545     7234.8747    55     7257.0000     7231.1153   550461    0.36%
Elapsed time = 15.03 sec. (20391.75 ticks, tree = 2.14 MB, solutions = 16)
* 26090+ 2759                         7253.0000     7234.6535             0.25%
  28208  2299     7243.0000    43     7253.0000     7238.9433   650760    0.19%
  28209  2300     7243.0000    43     7253.0000     7238.9433   650764    0.19%
  28210  2301     7243.0000    41     7253.0000     7238.9433   650768    0.19%
  28211  2302     7243.0000    39     7253.0000     7238.9433   650811    0.19%
  28212  2303     7243.0796    38     7253.0000     7238.9433   650870    0.19%
  28213  2304     7243.1717    40     7253.0000     7238.9433   650873    0.19%
  28214  2305     7243.1741    40     7253.0000     7238.9433   650874    0.19%
  28215  2306     7244.8465    46     7253.0000     7238.9433   650908    0.19%
  28216  2307     7244.9075    43     7253.0000     7238.9433   650913    0.19%
  28217  2308     7245.0448    40     7253.0000     7238.9433   650923    0.19%
Elapsed time = 17.57 sec. (24213.14 ticks, tree = 1.93 MB, solutions = 17)

Cover cuts applied:  156
Mixed integer rounding cuts applied:  20
Zero-half cuts applied:  1
Gomory fractional cuts applied:  4

Root node processing (before b&c):
  Real time             =    0.02 sec. (15.99 ticks)
Sequential b&c:
  Real time             =   18.94 sec. (26228.02 ticks)
                          ------------
Total (root+branch&cut) =   18.96 sec. (26244.01 ticks)

Solution pool: 17 solutions saved.

MIP - Integer optimal solution:  Objective =  7.2530000000e+03
Solution time =   18.96 sec.  Iterations = 710894  Nodes = 32092
Deterministic time = 26244.01 ticks  (1384.20 ticks/sec)


Incumbent solution written to file '/tmp/tmpzSqCvF.cplex.sol'.
